RT is False
Default write of storage_offers_DA.csv just to have a file (but constraint should be inactive)
Reading model...
...model read.
creating competitive generators file...
...competitive generators recorded.
Loading data...
.. day-ahead data read.
Compiling instance...
...instance created.
Creating Offer Mitigation (model will solve as dispatch if TRUE)...
NOTE: storage offers will not be mitigated
...storage offer mitigation file created
Converting model to MPEC...
...converted
NOTE: initial MIP solve with only storage competitive to get feasible solution
Solving...

Welcome to IBM(R) ILOG(R) CPLEX(R) Interactive Optimizer 12.9.0.0
  with Simplex, Mixed Integer & Barrier Optimizers
5725-A06 5725-A29 5724-Y48 5724-Y49 5724-Y54 5724-Y55 5655-Y21
Copyright IBM Corp. 1988, 2019.  All Rights Reserved.

Type 'help' for a list of available commands.
Type 'help' followed by a command name for more
information on commands.

CPLEX> Logfile 'cplex.log' closed.
Logfile 'C:\Users\Luke\Desktop\competitiveMPEC_12.6\logs\tmpeefxd25l.cplex.log' open.
CPLEX> New value for parallel optimization mode: -1
CPLEX> New value for mixed integer optimality gap tolerance: 0.01
CPLEX> New value for integrality tolerance: 1e-09
CPLEX> New value for feasibility tolerance: 0.01
CPLEX> New value for deterministic time limit in ticks: 175000
CPLEX> Problem 'C:\Users\Luke\Desktop\competitiveMPEC_12.6\logs\tmpd5g949e9.pyomo.lp' read.
Read time = 0.20 sec. (14.73 ticks)
CPLEX> Problem name         : C:\Users\Luke\Desktop\competitiveMPEC_12.6\logs\tmpd5g949e9.pyomo.lp
Objective sense      : Maximize
Variables            :   53805  [Nneg: 1,  Box: 22000,  Free: 4464,
                                 Binary: 27340]
Objective nonzeros   :    9077
Linear constraints   :  123205  [Less: 41346,  Greater: 59096,  Equal: 22763]
  Nonzeros           :  291704
  RHS nonzeros       :   67490

Variables            : Min LB: -5000.000        Max UB: 1000000.       
Objective nonzeros   : Min   : 0.1000000        Max   : 2500.000       
Linear constraints   :
  Nonzeros           : Min   : 0.1000000        Max   : 1000000.       
  RHS nonzeros       : Min   : 0.1000000        Max   : 1000000.       
CPLEX> CPXPARAM_Parallel                                -1
CPXPARAM_Simplex_Tolerances_Feasibility          0.01
CPXPARAM_DetTimeLimit                            175000
CPXPARAM_MIP_Tolerances_MIPGap                   0.01
CPXPARAM_MIP_Tolerances_Integrality              1.0000000000000001e-09
Tried aggregator 3 times.
MIP Presolve eliminated 88643 rows and 18991 columns.
MIP Presolve added 3357 rows and 0 columns.
MIP Presolve modified 24825 coefficients.
Aggregator did 12980 substitutions.
Reduced MIP has 24939 rows, 21278 columns, and 71138 nonzeros.
Reduced MIP has 8425 binaries, 0 generals, 0 SOSs, and 0 indicators.
Presolve time = 0.23 sec. (173.67 ticks)
Probing fixed 417 vars, tightened 2909 bounds.
Probing time = 1.48 sec. (900.38 ticks)
Tried aggregator 2 times.
MIP Presolve eliminated 946 rows and 845 columns.
MIP Presolve modified 2235 coefficients.
Aggregator did 38 substitutions.
Reduced MIP has 23955 rows, 20395 columns, and 68272 nonzeros.
Reduced MIP has 8004 binaries, 0 generals, 0 SOSs, and 0 indicators.
Presolve time = 0.09 sec. (72.00 ticks)
Probing time = 0.03 sec. (15.93 ticks)
Clique table members: 6448.
MIP emphasis: balance optimality and feasibility.
MIP search method: dynamic search.
Parallel mode: opportunistic, using up to 24 threads.
Root relaxation solution time = 0.28 sec. (402.35 ticks)

        Nodes                                         Cuts/
   Node  Left     Objective  IInf  Best Integer    Best Bound    ItCnt     Gap

      0     0      -29.2977   628                    -29.2977     2497         
*     0+   11                         -116.2989       Cuts: 3            74.36%
Elapsed time = 7.16 sec. (4081.80 ticks, tree = 0.02 MB, solutions = 1)
    137    13      -61.3328     1     -116.2989      -46.5414     3456   59.98%
    276     9        cutoff           -116.2989      -46.5414     3675   59.98%
    360    16      -29.8187     2     -116.2989      -46.5414     3671   59.98%
    455     7        cutoff           -116.2989      -46.5414     3692   59.98%
    528     9      -61.3328     1     -116.2989      -46.5414     3810   59.98%
    590     8        cutoff           -116.2989      -46.5414     4081   59.98%
    640     7        cutoff           -116.2989      -46.5414     3970   59.98%
    707     7        cutoff           -116.2989      -46.5414     4039   59.98%
    758    10      -59.1346     1     -116.2989      -46.5414     4073   59.98%
    935     8        cutoff           -116.2989      -46.5414     4284   59.98%
Elapsed time = 22.84 sec. (7204.58 ticks, tree = 0.02 MB, solutions = 1)
   1081     9      -29.8187     2     -116.2989      -46.5414     4743   59.98%
   1223     9      -61.3328     1     -116.2989      -46.5414     4751   59.98%
   1346     8        cutoff           -116.2989      -46.5414     4377   59.98%
   1458     9      -29.8187     2     -116.2989      -46.5414     4460   59.98%
   1560     4      -65.6185     1     -116.2989      -78.0553     5145   32.88%
   1650     9      -50.9404     2     -116.2989      -78.0553     4779   32.88%
   1732     8        cutoff           -116.2989      -78.0554     4756   32.88%
   1802     8        cutoff           -116.2989      -78.0554     4778   32.88%
   1855     9      -65.6185     1     -116.2989      -78.0554     4817   32.88%
   1888     8        cutoff           -116.2989      -78.0554     4819   32.88%
Elapsed time = 29.11 sec. (16855.85 ticks, tree = 0.02 MB, solutions = 1)
   1911     3        cutoff           -116.2989      -78.0554     5102   32.88%
   1924     8      -61.3328     1     -116.2989      -78.0554     4956   32.88%
   1937     8      -61.3328     1     -116.2989      -78.0554     4958   32.88%

Cover cuts applied:  1
Implied bound cuts applied:  1
Flow cuts applied:  3

Root node processing (before b&c):
  Real time             =    6.28 sec. (4061.67 ticks)
Parallel b&c, 24 threads:
  Real time             =   23.03 sec. (15872.76 ticks)
  Sync time (average)   =   16.68 sec.
  Wait time (average)   =    0.00 sec.
                          ------------
Total (root+branch&cut) =   29.31 sec. (19934.43 ticks)

Solution pool: 1 solution saved.

MIP - Integer optimal solution:  Objective = -1.1629894683e+02
Solution time =   29.31 sec.  Iterations = 5169  Nodes = 1939
Deterministic time = 19934.59 ticks  (680.06 ticks/sec)

CPLEX> Incumbent solution written to file 'C:\Users\Luke\Desktop\competitiveMPEC_12.6\logs\tmpc4i20n_i.cplex.sol'.
CPLEX> NOTE: no warmstart specified for MIP iteration, default behavior is true
NOTE: resolving with all competitive generators using storage-only solution to warmstart
Solving...

Welcome to IBM(R) ILOG(R) CPLEX(R) Interactive Optimizer 12.9.0.0
  with Simplex, Mixed Integer & Barrier Optimizers
5725-A06 5725-A29 5724-Y48 5724-Y49 5724-Y54 5724-Y55 5655-Y21
Copyright IBM Corp. 1988, 2019.  All Rights Reserved.

Type 'help' for a list of available commands.
Type 'help' followed by a command name for more
information on commands.

CPLEX> Logfile 'cplex.log' closed.
Logfile 'C:\Users\Luke\Desktop\competitiveMPEC_12.6\logs\tmpfxphb4q1.cplex.log' open.
CPLEX> New value for parallel optimization mode: -1
CPLEX> New value for mixed integer optimality gap tolerance: 0.01
CPLEX> New value for integrality tolerance: 1e-09
CPLEX> New value for feasibility tolerance: 0.01
CPLEX> New value for deterministic time limit in ticks: 175000
CPLEX> Problem 'C:\Users\Luke\Desktop\competitiveMPEC_12.6\logs\tmpdqpa8ia9.pyomo.lp' read.
Read time = 0.20 sec. (14.75 ticks)
CPLEX> MIP start file 'C:\Users\Luke\Desktop\competitiveMPEC_12.6\logs\tmpk0jx1boo.cplex.mst' read.
CPLEX> Problem name         : C:\Users\Luke\Desktop\competitiveMPEC_12.6\logs\tmpdqpa8ia9.pyomo.lp
Objective sense      : Maximize
Variables            :   54525  [Nneg: 1,  Box: 22720,  Free: 4464,
                                 Binary: 27340]
Objective nonzeros   :    9773
Linear constraints   :  123205  [Less: 41346,  Greater: 59096,  Equal: 22763]
  Nonzeros           :  291704
  RHS nonzeros       :   67490

Variables            : Min LB: -5000.000        Max UB: 1000000.       
Objective nonzeros   : Min   : 0.1000000        Max   : 2500.000       
Linear constraints   :
  Nonzeros           : Min   : 0.1000000        Max   : 1000000.       
  RHS nonzeros       : Min   : 0.1000000        Max   : 1000000.       
CPLEX> CPXPARAM_Parallel                                -1
CPXPARAM_Simplex_Tolerances_Feasibility          0.01
CPXPARAM_DetTimeLimit                            175000
CPXPARAM_MIP_Tolerances_MIPGap                   0.01
CPXPARAM_MIP_Tolerances_Integrality              1.0000000000000001e-09
Warning:  No solution found from 1 MIP starts.
Retaining values of one MIP start for possible repair.
Tried aggregator 3 times.
MIP Presolve eliminated 88643 rows and 19711 columns.
MIP Presolve added 3357 rows and 0 columns.
MIP Presolve modified 24825 coefficients.
Aggregator did 12980 substitutions.
Reduced MIP has 24939 rows, 21278 columns, and 71138 nonzeros.
Reduced MIP has 8425 binaries, 0 generals, 0 SOSs, and 0 indicators.
Presolve time = 0.25 sec. (174.03 ticks)
Probing fixed 417 vars, tightened 2909 bounds.
Probing time = 1.48 sec. (900.38 ticks)
Tried aggregator 2 times.
MIP Presolve eliminated 946 rows and 845 columns.
MIP Presolve modified 2235 coefficients.
Aggregator did 38 substitutions.
Reduced MIP has 23955 rows, 20395 columns, and 68272 nonzeros.
Reduced MIP has 8004 binaries, 0 generals, 0 SOSs, and 0 indicators.
Presolve time = 0.09 sec. (72.01 ticks)
Probing time = 0.03 sec. (15.93 ticks)
Clique table members: 6448.
MIP emphasis: balance optimality and feasibility.
MIP search method: dynamic search.
Parallel mode: opportunistic, using up to 24 threads.
Root relaxation solution time = 0.31 sec. (469.45 ticks)

        Nodes                                         Cuts/
   Node  Left     Objective  IInf  Best Integer    Best Bound    ItCnt     Gap

      0     0    73250.4407   729                  73250.4407     2497         
      0     0    71471.7359   108                   Cuts: 104     2563         
      0     0    71269.3886   107                    Cuts: 84     2594         
      0     0    71204.7853    99                    Cuts: 32     2610         
      0     0    71172.4794   101                    Cuts: 14     2618         
      0     0    71170.7939    99                    Cuts: 16     2619         
      0     0    71170.7939    99                    Cuts: 11     2619         
Repair heuristic found nothing.
      0     2    71170.7939    99                    Cuts: 12     2619         
Elapsed time = 9.47 sec. (5847.06 ticks, tree = 0.02 MB, solutions = 0)
    363   144    69256.9090    80                  70258.8186     5027         
    686   368    infeasible                        70258.8186    10553         
   1095   630    52548.6258    56                  70258.8186    12956         
   1499   674    49023.5209    49                  70258.8186    13422         
   1924   948    infeasible                        70258.8186    16473         
   2390  1479    12983.0399     3                  70258.8186    23510         
   2852  1708    34108.0266    32                  70258.8186    25132         
   3248  1938    63817.0770    67                  70258.8186    26537         
*  3570+ 1430                        18941.0701    70258.8186           270.93%
   5072  2004    28796.7619    34    18941.0701    69792.4938    43619  268.47%
Elapsed time = 17.11 sec. (8946.47 ticks, tree = 26.79 MB, solutions = 5)
   5789  3265    41159.5681    66    18941.0701    31607.8711    57561   66.87%
   7038   510    40332.5615    91    18941.0701    31607.8711    66535   66.87%
   8019   842        cutoff          18941.0701    31607.8711    87374   66.87%
  10124   980    19685.3857    60    18941.0701    28156.6626   106144   48.65%
  12177   599    18960.0677    38    18941.0701    23467.6872   127350   23.90%
  14287  1773        cutoff          18941.0701    20162.0587   140906    6.45%
  16283  2333    19471.3730    32    18941.0701    19722.7030   155435    4.13%
  18264  2327        cutoff          18941.0701    19596.7788   172097    3.46%
  20071  2013    18988.9700     9    18941.0701    19243.0153   188715    1.59%

GUB cover cuts applied:  1
Clique cuts applied:  2
Cover cuts applied:  8
Implied bound cuts applied:  7
Flow cuts applied:  246
Mixed integer rounding cuts applied:  21
Gomory fractional cuts applied:  35

Root node processing (before b&c):
  Real time             =    8.84 sec. (5806.06 ticks)
Parallel b&c, 24 threads:
  Real time             =   37.52 sec. (16875.81 ticks)
  Sync time (average)   =    0.92 sec.
  Wait time (average)   =    0.08 sec.
                          ------------
Total (root+branch&cut) =   46.36 sec. (22681.86 ticks)

Solution pool: 5 solutions saved.

MIP - Integer optimal, tolerance (0.01/1e-06):  Objective =  1.8941070099e+04
Current MIP best bound =  1.9130174691e+04 (gap = 189.105, 1.00%)
Solution time =   46.39 sec.  Iterations = 196832  Nodes = 20433 (1981)
Deterministic time = 22682.02 ticks  (488.93 ticks/sec)

CPLEX> Incumbent solution written to file 'C:\Users\Luke\Desktop\competitiveMPEC_12.6\logs\tmpuwicqfl9.cplex.sol'.
CPLEX> Exporting results... 
